% number of games is 43

num = 43;
cap = 5;
refill = 2;
fun = [-18, -15, -3, -3, 18, -18, 6, 19, 16, 6, -15, 2, 14, -14, 10, 4, 11, -8, -10, -6, 13, -4, 3, 17, 10, 18, -13, 12, -7, 12, -2, 8, 10, 18, -6, -5, 14, 18, 18, 7, -5, -17, -9];
